3 24 83 71 73 85 100 22 47 
96 57 62 56 38 36 51 52 21 75 
87 86 25 82 61 45 48 34 1 49 
81 95 19 30 28 39 89 91 69 
17 18 54 16 77 23 66 
33 42 63 29 46 6 12 50 
20 98 7 8 15 14 9 68 2 
67 32 35 53 58 88 64 80 
13 78 40 44 72 60 4 
65 31 37 92 93 97 99 
55 5 10 70 59 79 
90 76 27 74 11 26 
43 41 94 84 

